p cnf 22 10
a 1 0
e 2 0
a 3 0
e 4 5 6 0
a 7 0
e 8 9 10 0
a 11 12 0
e 13 0
a 14 0
e 15 0
a 16 0
e 17 0
a 18 19 20 21 0
e 22 0
17 -6 -7 19 0
7 5 -4 0
15 7 0
-20 -15 -12 10 0
8 -9 0
-7 -12 13 18 21 0
3 -19 2 0
16 -2 -17 -18 3 0
17 20 4 13 0
5 13 20 -10 0
